(set-logic QF_SLIA)
(declare-fun var0 () String)
(assert (not (str.in_re var0 (re.++ ((_ re.loop 3 369) (re.++ (re.union (str.to_re "dA1") (re.union (str.to_re "(a") (re.union (str.to_re "H") (str.to_re "5NY")))) (re.++ (re.union (str.to_re "]>") (re.union (str.to_re "w") (re.union (str.to_re "l<V") (str.to_re "+")))) (re.++ (re.union (str.to_re "_&%") (re.union (str.to_re "_") (re.union (str.to_re "q;") (str.to_re "5")))) (re.union (str.to_re "$T2") (re.union (str.to_re "n,q") (re.union (str.to_re "V") (str.to_re "dD{")))))))) (re.++ ((_ re.loop 19 124) (re.++ (re.union (str.to_re "=f") (re.union (str.to_re "n") (re.union (str.to_re ";)") (str.to_re "R")))) (re.++ (re.union (str.to_re "ku[") (re.union (str.to_re "#!") (re.union (str.to_re "~") (str.to_re "E")))) (re.++ (re.union (str.to_re "W^") (re.union (str.to_re ".") (re.union (str.to_re "lD") (str.to_re "@{")))) (re.union (str.to_re "2") (re.union (str.to_re "+") (re.union (str.to_re "R") (str.to_re "l")))))))) (re.++ ((_ re.loop 10 845) (re.++ (re.union (str.to_re "v") (re.union (str.to_re "W") (re.union (str.to_re "(Z&") (str.to_re ";f")))) (re.++ (re.union (str.to_re "&j1") (re.union (str.to_re "a") (re.union (str.to_re "kI\u0022") (str.to_re "H")))) (re.++ (re.union (str.to_re "=") (re.union (str.to_re "%={") (re.union (str.to_re ".") (str.to_re "Xv")))) (re.union (str.to_re "t") (re.union (str.to_re "9") (re.union (str.to_re "8") (str.to_re "~")))))))) ((_ re.loop 11 146) (re.++ (re.union (str.to_re "(7") (re.union (str.to_re "c") (re.union (str.to_re "C@") (str.to_re "x3")))) (re.++ (re.union (str.to_re "J]") (re.union (str.to_re "ZU*") (re.union (str.to_re "<") (str.to_re "t")))) (re.++ (re.union (str.to_re "6@1") (re.union (str.to_re "z@") (re.union (str.to_re "a") (str.to_re "bc")))) (re.union (str.to_re ",'}") (re.union (str.to_re "5d!") (re.union (str.to_re ":mw") (str.to_re "uh"))))))))))))))
(assert (not (str.in_re var0 (re.++ ((_ re.loop 20 334) (re.++ (re.union (str.to_re "wd") (re.union (str.to_re "6u]") (re.union (str.to_re "B]") (str.to_re "af")))) (re.++ (re.union (str.to_re "[+") (re.union (str.to_re ":HT") (re.union (str.to_re "FZ") (str.to_re "Y")))) (re.++ (re.union (str.to_re "a") (re.union (str.to_re "R`") (re.union (str.to_re "V`t") (str.to_re "84Y")))) (re.union (str.to_re "%QG") (re.union (str.to_re "d") (re.union (str.to_re "n") (str.to_re "m")))))))) (re.++ ((_ re.loop 6 458) (re.++ (re.union (str.to_re "Q^") (re.union (str.to_re "xy") (re.union (str.to_re "YZz") (str.to_re "zSH")))) (re.++ (re.union (str.to_re "BlB") (re.union (str.to_re "xK&") (re.union (str.to_re "Pec") (str.to_re ".2")))) (re.++ (re.union (str.to_re "OMX") (re.union (str.to_re "8#") (re.union (str.to_re "W") (str.to_re "BS")))) (re.union (str.to_re "mxF") (re.union (str.to_re "/") (re.union (str.to_re "=%") (str.to_re "r")))))))) (re.++ ((_ re.loop 19 367) (re.++ (re.union (str.to_re "dVZ") (re.union (str.to_re "*") (re.union (str.to_re "q4>") (str.to_re "H")))) (re.++ (re.union (str.to_re "MO") (re.union (str.to_re "[") (re.union (str.to_re "apB") (str.to_re "Z@x")))) (re.++ (re.union (str.to_re "|E") (re.union (str.to_re ":C<") (re.union (str.to_re "fTt") (str.to_re "$w")))) (re.union (str.to_re "4") (re.union (str.to_re "C") (re.union (str.to_re "k") (str.to_re "%T")))))))) ((_ re.loop 8 437) (re.++ (re.union (str.to_re "m?[") (re.union (str.to_re "^g") (re.union (str.to_re "N6") (str.to_re "^^%")))) (re.++ (re.union (str.to_re "hq") (re.union (str.to_re "l") (re.union (str.to_re "H8-") (str.to_re "!-,")))) (re.++ (re.union (str.to_re ";y") (re.union (str.to_re "+z}") (re.union (str.to_re "gC@") (str.to_re "f")))) (re.union (str.to_re "!") (re.union (str.to_re "_") (re.union (str.to_re "T4>") (str.to_re "8"))))))))))))))
(assert (not (str.in_re var0 (re.++ (re.* re.allchar) (re.++ (re.union (str.to_re "<") (re.union (str.to_re ">") (re.union (str.to_re "'") (re.union (str.to_re "\u0022") (str.to_re "&"))))) (re.* re.allchar))))))
(assert (<= 50 (str.len var0)))
(check-sat)
(get-model)
